unsat
(error "line 1834 column 17: model is not available")
(error "line 1835 column 17: model is not available")
(error "line 1836 column 18: model is not available")
(error "line 1837 column 18: model is not available")
(error "line 1838 column 18: model is not available")
(error "line 1839 column 18: model is not available")
(error "line 1840 column 18: model is not available")
(error "line 1841 column 18: model is not available")
(error "line 1842 column 18: model is not available")
(error "line 1843 column 18: model is not available")
(error "line 1844 column 18: model is not available")
(error "line 1845 column 18: model is not available")
(error "line 1846 column 17: model is not available")
(error "line 1847 column 18: model is not available")
(error "line 1848 column 18: model is not available")
(error "line 1849 column 18: model is not available")
(error "line 1850 column 18: model is not available")
(error "line 1851 column 18: model is not available")
(error "line 1852 column 18: model is not available")
(error "line 1853 column 18: model is not available")
(error "line 1854 column 18: model is not available")
(error "line 1855 column 18: model is not available")
(error "line 1856 column 18: model is not available")
(error "line 1857 column 17: model is not available")
(error "line 1858 column 18: model is not available")
(error "line 1859 column 18: model is not available")
(error "line 1860 column 18: model is not available")
(error "line 1861 column 18: model is not available")
(error "line 1862 column 18: model is not available")
(error "line 1863 column 18: model is not available")
(error "line 1864 column 18: model is not available")
(error "line 1865 column 18: model is not available")
(error "line 1866 column 18: model is not available")
(error "line 1867 column 17: model is not available")
(error "line 1868 column 17: model is not available")
(error "line 1869 column 17: model is not available")
(error "line 1870 column 17: model is not available")
(error "line 1871 column 17: model is not available")
(error "line 1872 column 17: model is not available")
(error "line 1873 column 34: model is not available")
(error "line 1874 column 34: model is not available")
(error "line 1875 column 34: model is not available")
(error "line 1876 column 34: model is not available")
(error "line 1877 column 71: model is not available")
(error "line 1878 column 71: model is not available")
(error "line 1879 column 28: model is not available")
(error "line 1880 column 34: model is not available")
(error "line 1881 column 34: model is not available")
(error "line 1882 column 34: model is not available")
(error "line 1883 column 34: model is not available")
(error "line 1884 column 71: model is not available")
(error "line 1885 column 71: model is not available")
(error "line 1886 column 28: model is not available")
(error "line 1887 column 34: model is not available")
(error "line 1888 column 34: model is not available")
(error "line 1889 column 34: model is not available")
(error "line 1890 column 34: model is not available")
(error "line 1891 column 71: model is not available")
(error "line 1892 column 71: model is not available")
(error "line 1893 column 28: model is not available")
(error "line 1894 column 38: model is not available")
(error "line 1895 column 45: model is not available")
(error "line 1896 column 38: model is not available")
(error "line 1897 column 45: model is not available")
(error "line 1898 column 46: model is not available")
(error "line 1899 column 53: model is not available")
(error "line 1900 column 40: model is not available")
(error "line 1901 column 47: model is not available")
(error "line 1902 column 38: model is not available")
(error "line 1903 column 45: model is not available")
(error "line 1904 column 38: model is not available")
(error "line 1905 column 45: model is not available")
(error "line 1906 column 41: model is not available")
(error "line 1907 column 48: model is not available")
(error "line 1908 column 41: model is not available")
(error "line 1909 column 48: model is not available")
(error "line 1910 column 41: model is not available")
(error "line 1911 column 48: model is not available")
(error "line 1912 column 41: model is not available")
(error "line 1913 column 41: model is not available")
(error "line 1914 column 48: model is not available")
(error "line 1915 column 41: model is not available")
(error "line 1916 column 48: model is not available")
(error "line 1917 column 41: model is not available")
(error "line 1918 column 41: model is not available")
(error "line 1919 column 48: model is not available")
(error "line 1920 column 37: model is not available")
(error "line 1921 column 44: model is not available")
(error "line 1922 column 42: model is not available")
(error "line 1923 column 42: model is not available")
(error "line 1924 column 42: model is not available")
(error "line 1925 column 42: model is not available")
(error "line 1926 column 38: model is not available")
(error "line 1927 column 38: model is not available")
(error "line 1928 column 38: model is not available")
(error "line 1929 column 38: model is not available")
(error "line 1930 column 38: model is not available")
(error "line 1931 column 38: model is not available")
(error "line 1932 column 38: model is not available")
(error "line 1933 column 41: model is not available")
(error "line 1934 column 48: model is not available")
(error "line 1935 column 41: model is not available")
(error "line 1936 column 48: model is not available")
(error "line 1937 column 41: model is not available")
(error "line 1938 column 48: model is not available")
(error "line 1939 column 41: model is not available")
(error "line 1940 column 48: model is not available")
(error "line 1941 column 41: model is not available")
(error "line 1942 column 48: model is not available")
(error "line 1943 column 41: model is not available")
(error "line 1944 column 48: model is not available")
(error "line 1945 column 41: model is not available")
(error "line 1946 column 48: model is not available")
(error "line 1947 column 50: model is not available")
(error "line 1948 column 57: model is not available")
(error "line 1949 column 57: model is not available")
(error "line 1950 column 57: model is not available")
(error "line 1951 column 33: model is not available")
(error "line 1952 column 40: model is not available")
(error "line 1953 column 34: model is not available")
(error "line 1954 column 41: model is not available")
(error "line 1955 column 34: model is not available")
(error "line 1956 column 34: model is not available")
(error "line 1957 column 41: model is not available")
(error "line 1958 column 33: model is not available")
(error "line 1959 column 40: model is not available")
(error "line 1960 column 33: model is not available")
(error "line 1961 column 33: model is not available")
(error "line 1962 column 40: model is not available")
(error "line 1963 column 33: model is not available")
(error "line 1964 column 33: model is not available")
(error "line 1965 column 40: model is not available")
(error "line 1966 column 33: model is not available")
(error "line 1967 column 40: model is not available")
(error "line 1968 column 33: model is not available")
(error "line 1969 column 33: model is not available")
(error "line 1970 column 40: model is not available")
(error "line 1971 column 36: model is not available")
(error "line 1972 column 43: model is not available")
(error "line 1973 column 36: model is not available")
(error "line 1974 column 43: model is not available")
(error "line 1975 column 36: model is not available")
(error "line 1976 column 36: model is not available")
(error "line 1977 column 43: model is not available")
(error "line 1978 column 36: model is not available")
(error "line 1979 column 43: model is not available")
(error "line 1980 column 36: model is not available")
(error "line 1981 column 43: model is not available")
(error "line 1982 column 36: model is not available")
(error "line 1983 column 36: model is not available")
(error "line 1984 column 43: model is not available")
(error "line 1985 column 36: model is not available")
(error "line 1986 column 43: model is not available")
(error "line 1987 column 36: model is not available")
(error "line 1988 column 43: model is not available")
(error "line 1989 column 36: model is not available")
(error "line 1990 column 36: model is not available")
(error "line 1991 column 43: model is not available")
(error "line 1992 column 38: model is not available")
(error "line 1993 column 36: model is not available")
(error "line 1994 column 36: model is not available")
(error "line 1995 column 36: model is not available")
(error "line 1996 column 36: model is not available")
(error "line 1997 column 32: model is not available")
(error "line 1998 column 39: model is not available")
(error "line 1999 column 32: model is not available")
(error "line 2000 column 39: model is not available")
(error "line 2001 column 32: model is not available")
(error "line 2002 column 39: model is not available")
(error "line 2003 column 32: model is not available")
(error "line 2004 column 39: model is not available")
(error "line 2005 column 32: model is not available")
(error "line 2006 column 32: model is not available")
(error "line 2007 column 39: model is not available")
(error "line 2008 column 32: model is not available")
(error "line 2009 column 39: model is not available")
(error "line 2010 column 32: model is not available")
(error "line 2011 column 39: model is not available")
(error "line 2012 column 32: model is not available")
(error "line 2013 column 39: model is not available")
(error "line 2014 column 33: model is not available")
(error "line 2015 column 35: model is not available")
(error "line 2016 column 42: model is not available")
(error "line 2017 column 35: model is not available")
(error "line 2018 column 42: model is not available")
(error "line 2019 column 33: model is not available")
(error "line 2020 column 35: model is not available")
(error "line 2021 column 42: model is not available")
(error "line 2022 column 35: model is not available")
(error "line 2023 column 42: model is not available")
(error "line 2024 column 40: model is not available")
(error "line 2025 column 33: model is not available")
(error "line 2026 column 35: model is not available")
(error "line 2027 column 42: model is not available")
(error "line 2028 column 35: model is not available")
(error "line 2029 column 42: model is not available")
(error "line 2030 column 40: model is not available")
(error "line 2031 column 53: model is not available")
(error "line 2032 column 51: model is not available")
(error "line 2033 column 53: model is not available")
(error "line 2034 column 53: model is not available")
(error "line 2035 column 52: model is not available")
(error "line 2036 column 53: model is not available")
(error "line 2037 column 52: model is not available")
(error "line 2038 column 52: model is not available")
(error "line 2039 column 52: model is not available")
(error "line 2040 column 53: model is not available")
(error "line 2041 column 53: model is not available")
(error "line 2042 column 53: model is not available")
(error "line 2043 column 53: model is not available")
(error "line 2044 column 52: model is not available")
(error "line 2045 column 53: model is not available")
(error "line 2046 column 52: model is not available")
(error "line 2047 column 53: model is not available")
(error "line 2048 column 52: model is not available")
(error "line 2049 column 53: model is not available")
(error "line 2050 column 52: model is not available")
(error "line 2051 column 52: model is not available")
(error "line 2052 column 53: model is not available")
(error "line 2053 column 53: model is not available")
(error "line 2054 column 53: model is not available")
(error "line 2055 column 53: model is not available")
(error "line 2056 column 52: model is not available")
(error "line 2057 column 51: model is not available")
(error "line 2058 column 51: model is not available")
(error "line 2059 column 52: model is not available")
(error "line 2060 column 51: model is not available")
(error "line 2061 column 52: model is not available")
(error "line 2062 column 51: model is not available")
(error "line 2063 column 51: model is not available")
(error "line 2064 column 51: model is not available")
(error "line 2065 column 50: model is not available")
(error "line 2066 column 50: model is not available")
(error "line 2067 column 52: model is not available")
(error "line 2068 column 51: model is not available")
(error "line 2069 column 51: model is not available")
(error "line 2070 column 51: model is not available")
(error "line 2071 column 50: model is not available")
(error "line 2072 column 50: model is not available")
(error "line 2073 column 52: model is not available")
(error "line 2074 column 51: model is not available")
(error "line 2075 column 52: model is not available")
(error "line 2076 column 51: model is not available")
(error "line 2077 column 51: model is not available")
(error "line 2078 column 51: model is not available")
(error "line 2079 column 50: model is not available")
(error "line 2080 column 50: model is not available")
(error "line 2081 column 56: model is not available")
(error "line 2082 column 56: model is not available")
(error "line 2083 column 56: model is not available")
(error "line 2084 column 56: model is not available")
(error "line 2085 column 56: model is not available")
(error "line 2086 column 56: model is not available")
(error "line 2087 column 56: model is not available")
(error "line 2088 column 56: model is not available")
(error "line 2089 column 56: model is not available")
(error "line 2090 column 56: model is not available")
(error "line 2091 column 56: model is not available")
(error "line 2092 column 56: model is not available")
(error "line 2093 column 55: model is not available")
(error "line 2094 column 55: model is not available")
(error "line 2095 column 55: model is not available")
(error "line 2096 column 55: model is not available")
(error "line 2097 column 55: model is not available")
(error "line 2098 column 55: model is not available")
(error "line 2099 column 55: model is not available")
(error "line 2100 column 36: model is not available")
(error "line 2101 column 36: model is not available")
(error "line 2102 column 36: model is not available")
(error "line 2103 column 46: model is not available")
(error "line 2104 column 46: model is not available")
(error "line 2105 column 46: model is not available")
(error "line 2106 column 46: model is not available")
(error "line 2107 column 46: model is not available")
(error "line 2108 column 46: model is not available")
(error "line 2109 column 54: model is not available")
(error "line 2110 column 54: model is not available")
(error "line 2111 column 54: model is not available")
(error "line 2112 column 54: model is not available")
(error "line 2113 column 54: model is not available")
(error "line 2114 column 54: model is not available")
(error "line 2115 column 54: model is not available")
(error "line 2116 column 54: model is not available")
(error "line 2117 column 54: model is not available")
(error "line 2118 column 40: model is not available")
(error "line 2119 column 40: model is not available")
(error "line 2120 column 40: model is not available")
(error "line 2121 column 40: model is not available")
(error "line 2122 column 40: model is not available")
(error "line 2123 column 40: model is not available")
(error "line 2124 column 41: model is not available")
(error "line 2125 column 41: model is not available")
(error "line 2126 column 41: model is not available")
(error "line 2127 column 41: model is not available")
(error "line 2128 column 41: model is not available")
(error "line 2129 column 41: model is not available")
(error "line 2130 column 50: model is not available")
(error "line 2131 column 50: model is not available")
(error "line 2132 column 50: model is not available")
(error "line 2133 column 50: model is not available")
(error "line 2134 column 50: model is not available")
(error "line 2135 column 50: model is not available")
(error "line 2136 column 43: model is not available")
(error "line 2137 column 43: model is not available")
(error "line 2138 column 43: model is not available")
(error "line 2139 column 43: model is not available")
(error "line 2140 column 43: model is not available")
(error "line 2141 column 43: model is not available")
(error "line 2142 column 26: model is not available")
(error "line 2143 column 30: model is not available")
(error "line 2144 column 30: model is not available")
(error "line 2145 column 30: model is not available")
(error "line 2146 column 18: model is not available")
(error "line 2147 column 25: model is not available")
(error "line 2148 column 18: model is not available")
(error "line 2149 column 25: model is not available")
(error "line 2150 column 18: model is not available")
(error "line 2151 column 18: model is not available")
(error "line 2152 column 25: model is not available")
(error "line 2153 column 18: model is not available")
(error "line 2154 column 25: model is not available")
(error "line 2155 column 18: model is not available")
(error "line 2156 column 25: model is not available")
(error "line 2157 column 18: model is not available")
(error "line 2158 column 18: model is not available")
(error "line 2159 column 25: model is not available")
(error "line 2160 column 18: model is not available")
(error "line 2161 column 18: model is not available")
(error "line 2162 column 25: model is not available")
(error "line 2163 column 18: model is not available")
(error "line 2164 column 25: model is not available")
(error "line 2165 column 18: model is not available")
(error "line 2166 column 18: model is not available")
(error "line 2167 column 25: model is not available")
(error "line 2169 column 10: model is not available")
(:added-eqs                      91
 :arith-bound-propagations-cheap 17
 :arith-bound-propagations-lp    66
 :arith-conflicts                2
 :arith-lower                    49
 :arith-make-feasible            22
 :arith-max-columns              149
 :arith-max-rows                 104
 :arith-propagations             17
 :arith-upper                    61
 :array-ax1                      3
 :binary-propagations            255
 :bv-bit2core                    587
 :bv-diseqs                      4
 :bv->core-eq                    5
 :conflicts                      9
 :decisions                      24
 :del-clause                     205
 :eliminated-applications        23
 :eliminated-vars                20
 :max-memory                     4.45
 :memory                         3.22
 :minimized-lits                 3
 :mk-bool-var                    1062
 :mk-clause                      755
 :num-allocs                     1195532
 :num-checks                     1
 :propagations                   394
 :rlimit-count                   66091
 :time                           0.01
 :total-time                     0.02)

real	0m0.021s
user	0m0.018s
sys	0m0.004s
State: RE Run_time: 0.02344965934753418